;; Mutation-Based Equivalence Benchmark
;; Source:     AutomatArk / instance06902.smt2
;; Mutations:  range_shrink_hi, range_expand_hi
;; Status:     sat
;;
;; Original regex vs mutated regex
;; Equivalence check: unsat ⟺ L(R1) = L(R2)

(set-info :smt-lib-version 2.6)
(set-info :category "mutation")
(set-info :status sat)
(set-logic QF_S)


;; R1: original
;; R2: mutated (range_shrink_hi, range_expand_hi)
(assert
  (not
    (=
      (re.++ (str.to_re "\u{a}") ((_ re.loop 9 9) (re.union (re.range "a" "h") (str.to_re ",") (re.range "A" "H") (re.range "j" "n") (re.range "J" "N") (re.range "p" "z") (re.range "P" "Z") (re.range "0" "9"))) (re.union (re.range "a" "h") (str.to_re ",") (re.range "A" "H") (re.range "j" "n") (re.range "J" "N") (str.to_re "p") (str.to_re "P") (re.range "r" "t") (re.range "R" "T") (re.range "v" "z") (re.range "V" "Z") (re.range "0" "9")) (re.union (re.range "a" "h") (str.to_re ",") (re.range "A" "H") (re.range "j" "n") (re.range "J" "N") (re.range "p" "z") (re.range "P" "Z") (re.range "0" "9")) ((_ re.loop 6 6) (re.range "0" "9")))
      (re.++ (str.to_re "\u{a}") ((_ re.loop 9 9) (re.union (re.range "a" "h") (str.to_re ",") (re.range "A" "H") (re.range "j" "n") (re.range "J" "N") (re.range "p" "z") (re.range "P" "Z") (re.range "0" "9"))) (re.union (re.range "a" "h") (str.to_re ",") (re.range "A" "H") (re.range "j" "o") (re.range "J" "N") (str.to_re "p") (str.to_re "P") (re.range "r" "t") (re.range "R" "T") (re.range "v" "z") (re.range "V" "Z") (re.range "0" "9")) (re.union (re.range "a" "h") (str.to_re ",") (re.range "A" "H") (re.range "j" "n") (re.range "J" "N") (re.range "p" "z") (re.range "P" "Z") (re.range "0" "9")) ((_ re.loop 6 6) (re.range "0" "8"))))))

(check-sat)
(exit)
